experiment/data/lkh-res/Vrp-Set-B-n38/Vrp-Set-B-n38-lkh/0.lkh1.vrp
NAME : 0
COMMENT : CVRP Instance
TYPE : CVRP
DIMENSION : 38
EDGE_WEIGHT_TYPE : EUC_2D
CAPACITY : 100
NODE_COORD_SECTION
1	6400	7500
2	1600	9700
3	200	7900
4	2800	7900
5	1600	300
6	3900	2000
7	3500	6500
8	4300	2100
9	4400	0
10	3700	6700
11	1700	10000
12	3400	8000
13	4500	700
14	1100	8300
15	3500	8800
16	2100	9800
17	4100	7200
18	5100	0
19	1700	900
20	3600	6600
21	2000	10500
22	3500	8500
23	3700	7500
24	1700	1100
25	4600	600
26	4000	2300
27	4300	7300
28	4000	2100
29	2900	8500
30	4500	600
31	0	2400
32	4200	6600
33	3000	8100
34	1700	900
35	4600	400
36	0	8500
37	5100	200
38	500	8000
DEMAND_SECTION
1	0
2	18
3	10
4	16
5	12
6	21
7	23
8	15
9	25
10	3
11	6
12	7
13	4
14	20
15	25
16	20
17	12
18	3
19	12
20	14
21	26
22	9
23	22
24	20
25	9
26	13
27	21
28	10
29	8
30	5
31	14
32	7
33	21
34	20
35	1
36	21
37	17
38	2
DEPOT_SECTION
1
-1
EOF
