experiment/data/lkh-res/Vrp-Set-B-n38/Vrp-Set-B-n38-lkh/0.lkh1.tour
NAME : 0.80786.tour
COMMENT : Length = 80786
COMMENT : Found by LKH-3 [Keld Helsgaun] Tue Apr  9 00:53:32 2024
TYPE : TOUR
DIMENSION : 43
TOUR_SECTION
1
24
19
34
5
6
28
40
32
10
7
4
33
12
23
41
37
18
9
35
25
30
13
8
26
42
20
31
3
36
38
14
29
22
43
21
11
2
16
15
39
17
27
-1
EOF
